(declare-fun var0 () String)
(assert (str.in.re var0 (re.++ (re.+ (re.* (str.to.re "ZZZ"))) (re.++ (re.+ (re.union (str.to.re "XXX") (str.to.re "Y"))) (re.++ (re.union (re.union (str.to.re "T") (str.to.re "UUU")) (re.union (str.to.re "V") (str.to.re "WW"))) (re.++ (re.* (re.* (str.to.re "SSS"))) (re.++ (re.+ (re.* (str.to.re "RRR"))) (re.++ (re.* (re.* (str.to.re "QQQ"))) (re.++ (re.* (re.+ (str.to.re "PP"))) (re.++ (re.union (re.* (str.to.re "NN")) (re.* (str.to.re "OO"))) (re.++ (re.* (re.* (str.to.re "MM"))) (re.++ (re.union (re.union (str.to.re "I") (str.to.re "JJJ")) (re.union (str.to.re "K") (str.to.re "LL"))) (re.++ (re.+ (re.* (str.to.re "HHH"))) (re.++ (re.* (re.union (str.to.re "FFF") (str.to.re "G"))) (re.++ (re.union (re.union (str.to.re "CC") (str.to.re "DD")) (re.* (str.to.re "EE"))) (re.++ (re.union (re.union (str.to.re "zzz") (str.to.re "AAA")) (re.* (str.to.re "B"))) (re.++ (re.* (re.+ (str.to.re "yy"))) (re.++ (re.* (re.+ (str.to.re "xxx"))) (re.++ (re.* (re.union (str.to.re "vv") (str.to.re "ww"))) (re.++ (re.* (re.union (str.to.re "tt") (str.to.re "uu"))) (re.++ (re.+ (re.* (str.to.re "sss"))) (re.++ (re.union (re.union (str.to.re "pp") (str.to.re "qq")) (re.+ (str.to.re "r"))) (re.++ (re.* (re.union (str.to.re "n") (str.to.re "ooo"))) (re.++ (re.union (re.union (str.to.re "jjj") (str.to.re "kk")) (re.union (str.to.re "l") (str.to.re "mm"))) (re.++ (re.union (re.* (str.to.re "h")) (re.* (str.to.re "iii"))) (re.++ (re.* (re.union (str.to.re "fff") (str.to.re "gg"))) (re.++ (re.+ (re.union (str.to.re "dd") (str.to.re "eee"))) (re.++ (re.+ (re.* (str.to.re "ccc"))) (re.++ (re.* (re.+ (str.to.re "b"))) (re.++ (re.* (re.union (str.to.re "9") (str.to.re "aaa"))) (re.++ (re.union (re.* (str.to.re "666")) (re.union (str.to.re "777") (str.to.re "88"))) (re.++ (re.+ (re.* (str.to.re "55"))) (re.++ (re.union (re.union (str.to.re "11") (str.to.re "222")) (re.union (str.to.re "3") (str.to.re "4"))) (re.++ (re.+ (re.union (str.to.re "~~~") (str.to.re "00"))) (re.++ (re.+ (re.* (str.to.re "}}"))) (re.++ (re.* (re.union (str.to.re "{") (str.to.re "|"))) (re.++ (re.+ (re.union (str.to.re "__") (str.to.re "```"))) (re.++ (re.* (re.+ (str.to.re "^"))) (re.++ (re.+ (re.* (str.to.re "]]]"))) (re.++ (re.+ (re.+ (str.to.re "\\"))) (re.++ (re.* (re.* (str.to.re "[[["))) (re.++ (re.union (re.union (str.to.re ">") (str.to.re "???")) (re.+ (str.to.re "@@@"))) (re.++ (re.* (re.union (str.to.re "<<") (str.to.re "=="))) (re.++ (re.+ (re.* (str.to.re ";;;"))) (re.++ (re.* (re.* (str.to.re "::"))) (re.++ (re.union (re.union (str.to.re "-") (str.to.re ".")) (re.+ (str.to.re "/"))) (re.++ (re.+ (re.union (str.to.re "++") (str.to.re ",,"))) (re.++ (re.* (re.+ (str.to.re "**"))) (re.++ (re.+ (re.+ (str.to.re "))"))) (re.++ (re.union (re.* (str.to.re "''")) (re.+ (str.to.re "(("))) (re.++ (re.+ (re.union (str.to.re "%%") (str.to.re "&"))) (re.++ (re.union (re.* (str.to.re """""")) (re.union (str.to.re "#") (str.to.re "$$$"))) (re.++ (re.+ (re.* (str.to.re "!!!"))) (re.++ (re.+ (re.union (str.to.re "YY") (str.to.re "ZZ"))) (re.++ (re.+ (re.+ (str.to.re "XXX"))) (re.++ (re.* (re.union (str.to.re "VV") (str.to.re "W"))) (re.++ (re.+ (re.+ (str.to.re "UU"))) (re.++ (re.* (re.union (str.to.re "SSS") (str.to.re "T"))) (re.++ (re.* (re.union (str.to.re "Q") (str.to.re "RR"))) (re.++ (re.* (re.* (str.to.re "P"))) (re.++ (re.* (re.union (str.to.re "NN") (str.to.re "OO"))) (re.++ (re.union (re.* (str.to.re "L")) (re.* (str.to.re "M"))) (re.++ (re.+ (re.union (str.to.re "JJJ") (str.to.re "KK"))) (re.++ (re.+ (re.union (str.to.re "HH") (str.to.re "III"))) (re.++ (re.* (re.+ (str.to.re "GG"))) (re.++ (re.* (re.+ (str.to.re "F"))) (re.++ (re.union (re.* (str.to.re "DDD")) (re.+ (str.to.re "EEE"))) (re.++ (re.* (re.* (str.to.re "CC"))) (re.++ (re.* (re.union (str.to.re "AA") (str.to.re "BBB"))) (re.++ (re.union (re.+ (str.to.re "xxx")) (re.union (str.to.re "yy") (str.to.re "zz"))) (re.++ (re.+ (re.union (str.to.re "vvv") (str.to.re "w"))) (re.++ (re.+ (re.+ (str.to.re "uu"))) (re.++ (re.union (re.union (str.to.re "rrr") (str.to.re "sss")) (re.+ (str.to.re "t"))) (re.++ (re.+ (re.* (str.to.re "qqq"))) (re.++ (re.union (re.union (str.to.re "n") (str.to.re "oo")) (re.* (str.to.re "pp"))) (re.++ (re.* (re.* (str.to.re "m"))) (re.++ (re.+ (re.union (str.to.re "kkk") (str.to.re "ll"))) (re.++ (re.* (re.* (str.to.re "jj"))) (re.++ (re.union (re.* (str.to.re "g")) (re.union (str.to.re "hh") (str.to.re "i"))) (re.++ (re.union (re.union (str.to.re "ccc") (str.to.re "dd")) (re.union (str.to.re "eee") (str.to.re "ff"))) (re.++ (re.union (re.* (str.to.re "aa")) (re.* (str.to.re "bb"))) (re.++ (re.+ (re.* (str.to.re "99"))) (re.++ (re.* (re.+ (str.to.re "88"))) (re.++ (re.union (re.* (str.to.re "55")) (re.union (str.to.re "66") (str.to.re "777"))) (re.++ (re.* (re.* (str.to.re "444"))) (re.++ (re.union (re.* (str.to.re "2")) (re.+ (str.to.re "33"))) (re.++ (re.+ (re.+ (str.to.re "1"))) (re.* (re.* (str.to.re "00"))))))))))))))))))))))))))))))))))))))))))))))))))))))))))))))))))))))))))))))))))))))))))
(assert (not (str.in.re var0 (re.++ (re.union (re.union (str.to.re "$$$") (str.to.re "%%")) (re.+ (str.to.re "&&&"))) (re.++ (re.+ (re.+ (str.to.re "#"))) (re.++ (re.+ (re.* (str.to.re """"))) (re.++ (re.+ (re.* (str.to.re "!!"))) (re.++ (re.union (re.union (str.to.re "W") (str.to.re "X")) (re.union (str.to.re "YY") (str.to.re "ZZ"))) (re.++ (re.+ (re.* (str.to.re "V"))) (re.++ (re.union (re.* (str.to.re "T")) (re.+ (str.to.re "U"))) (re.++ (re.union (re.* (str.to.re "Q")) (re.union (str.to.re "RRR") (str.to.re "SS"))) (re.++ (re.* (re.* (str.to.re "PPP"))) (re.++ (re.union (re.+ (str.to.re "N")) (re.* (str.to.re "O"))) (re.++ (re.union (re.+ (str.to.re "LLL")) (re.* (str.to.re "M"))) (re.++ (re.+ (re.union (str.to.re "JJJ") (str.to.re "KK"))) (re.++ (re.* (re.* (str.to.re "I"))) (re.++ (re.+ (re.* (str.to.re "HHH"))) (re.++ (re.union (re.* (str.to.re "FFF")) (re.+ (str.to.re "G"))) (re.++ (re.* (re.union (str.to.re "D") (str.to.re "E"))) (re.++ (re.+ (re.union (str.to.re "BB") (str.to.re "CC"))) (re.++ (re.union (re.* (str.to.re "zz")) (re.+ (str.to.re "A"))) (re.++ (re.+ (re.+ (str.to.re "yy"))) (re.++ (re.+ (re.union (str.to.re "ww") (str.to.re "xx"))) (re.++ (re.+ (re.union (str.to.re "uuu") (str.to.re "v"))) (re.++ (re.* (re.+ (str.to.re "tt"))) (re.++ (re.union (re.* (str.to.re "rrr")) (re.+ (str.to.re "sss"))) (re.++ (re.union (re.union (str.to.re "o") (str.to.re "pp")) (re.* (str.to.re "q"))) (re.++ (re.* (re.+ (str.to.re "nn"))) (re.++ (re.* (re.+ (str.to.re "m"))) (re.++ (re.* (re.+ (str.to.re "l"))) (re.++ (re.union (re.* (str.to.re "jjj")) (re.+ (str.to.re "kkk"))) (re.++ (re.* (re.union (str.to.re "h") (str.to.re "iii"))) (re.++ (re.union (re.union (str.to.re "d") (str.to.re "eee")) (re.union (str.to.re "ff") (str.to.re "gg"))) (re.++ (re.+ (re.+ (str.to.re "c"))) (re.++ (re.+ (re.+ (str.to.re "bb"))) (re.++ (re.* (re.* (str.to.re "a"))) (re.++ (re.+ (re.+ (str.to.re "9"))) (re.++ (re.union (re.* (str.to.re "7")) (re.+ (str.to.re "88"))) (re.++ (re.* (re.* (str.to.re "666"))) (re.++ (re.union (re.+ (str.to.re "44")) (re.* (str.to.re "5"))) (re.++ (re.* (re.union (str.to.re "2") (str.to.re "333"))) (re.++ (re.+ (re.+ (str.to.re "1"))) (re.++ (re.* (re.union (str.to.re "~") (str.to.re "000"))) (re.++ (re.union (re.* (str.to.re "{{{")) (re.union (str.to.re "||") (str.to.re "}"))) (re.++ (re.* (re.+ (str.to.re "```"))) (re.++ (re.union (re.+ (str.to.re "^^^")) (re.+ (str.to.re "_"))) (re.++ (re.+ (re.* (str.to.re "]"))) (re.++ (re.+ (re.+ (str.to.re "\\"))) (re.++ (re.* (re.* (str.to.re "[[["))) (re.++ (re.union (re.union (str.to.re ">") (str.to.re "?")) (re.+ (str.to.re "@@@"))) (re.++ (re.union (re.union (str.to.re ";;") (str.to.re "<")) (re.+ (str.to.re "=="))) (re.++ (re.+ (re.union (str.to.re "///") (str.to.re ":"))) (re.++ (re.union (re.* (str.to.re "-")) (re.+ (str.to.re ".."))) (re.++ (re.* (re.* (str.to.re ",,,"))) (re.++ (re.+ (re.* (str.to.re "+++"))) (re.++ (re.+ (re.+ (str.to.re "***"))) (re.++ (re.+ (re.* (str.to.re ")"))) (re.++ (re.union (re.union (str.to.re "%") (str.to.re "&&&")) (re.union (str.to.re "'''") (str.to.re "((("))) (re.++ (re.union (re.union (str.to.re """""") (str.to.re "##")) (re.* (str.to.re "$$"))) (re.++ (re.union (re.+ (str.to.re "Z")) (re.* (str.to.re "!!!"))) (re.++ (re.+ (re.union (str.to.re "XX") (str.to.re "Y"))) (re.++ (re.union (re.union (str.to.re "U") (str.to.re "VVV")) (re.* (str.to.re "W"))) (re.++ (re.* (re.union (str.to.re "SSS") (str.to.re "TT"))) (re.++ (re.union (re.* (str.to.re "QQQ")) (re.+ (str.to.re "RR"))) (re.++ (re.union (re.union (str.to.re "MMM") (str.to.re "NN")) (re.union (str.to.re "O") (str.to.re "PPP"))) (re.++ (re.union (re.+ (str.to.re "KKK")) (re.* (str.to.re "LL"))) (re.++ (re.+ (re.union (str.to.re "II") (str.to.re "JJ"))) (re.++ (re.* (re.union (str.to.re "GG") (str.to.re "H"))) (re.++ (re.union (re.union (str.to.re "DDD") (str.to.re "EE")) (re.+ (str.to.re "FF"))) (re.++ (re.union (re.+ (str.to.re "A")) (re.union (str.to.re "BBB") (str.to.re "CC"))) (re.++ (re.union (re.+ (str.to.re "yyy")) (re.+ (str.to.re "zz"))) (re.++ (re.+ (re.union (str.to.re "ww") (str.to.re "x"))) (re.++ (re.* (re.+ (str.to.re "vv"))) (re.++ (re.* (re.union (str.to.re "t") (str.to.re "uu"))) (re.++ (re.* (re.union (str.to.re "rr") (str.to.re "sss"))) (re.++ (re.* (re.union (str.to.re "pp") (str.to.re "q"))) (re.++ (re.union (re.* (str.to.re "n")) (re.* (str.to.re "o"))) (re.++ (re.* (re.* (str.to.re "mmm"))) (re.++ (re.+ (re.+ (str.to.re "lll"))) (re.++ (re.+ (re.* (str.to.re "k"))) (re.++ (re.+ (re.* (str.to.re "jjj"))) (re.++ (re.union (re.union (str.to.re "fff") (str.to.re "gg")) (re.union (str.to.re "hhh") (str.to.re "i"))) (re.++ (re.* (re.+ (str.to.re "eee"))) (re.++ (re.union (re.union (str.to.re "bb") (str.to.re "c")) (re.* (str.to.re "d"))) (re.++ (re.* (re.union (str.to.re "99") (str.to.re "aaa"))) (re.++ (re.+ (re.+ (str.to.re "8"))) (re.++ (re.+ (re.union (str.to.re "666") (str.to.re "7"))) (re.++ (re.union (re.+ (str.to.re "333")) (re.union (str.to.re "4") (str.to.re "55"))) (re.union (re.+ (str.to.re "00")) (re.union (str.to.re "1") (str.to.re "222")))))))))))))))))))))))))))))))))))))))))))))))))))))))))))))))))))))))))))))))))))))))))))
(check-sat)